int NumberPatients = 67
int NumberOfRooms = 16
int NumberSurgeons = 19
int NumberOfDays = 6
Duration = [78,103,32,59,32,117,60,198,32,47,98,66,47,53,131,47,59,119,112,118,101,31,117,85,103,227,97,60,101,32,103,87,120,208,105,78,98,244,53,198,60,60,105,31,66,119,47,72,205,31,47,66,98,32,33,201,98,95,32,131,98,39,47,47,32,32,76];
Priority = [0,0,0,0,0,0,0,0,0,0,0,0,0,0,0,1,0,0,0,0,1,0,0,1,0,0,0,0,0,0,0,0,0,0,0,0,0,0,0,0,0,0,0,0,0,0,0,0,0,1,0,0,0,0,0,0,0,0,0,0,0,0,0,0,0,0,0];
Waiting = [431,274,164,79,218,134,81,120,178,32,84,351,354,548,84,148,35,74,21,59,37,115,63,60,79,171,78,66,84,116,46,101,354,115,79,95,518,56,52,37,172,133,86,382,382,30,25,66,43,120,66,148,148,191,63,37,114,281,184,366,205,63,38,65,25,95,211];
Surgeon = [4,11,3,5,8,10,6,2,10,3,1,1,8,3,5,8,3,3,5,2,10,7,2,11,1,1,2,5,5,1,4,6,6,5,2,1,4,6,3,2,1,2,6,3,2,6,6,3,17,3,1,11,6,6,6,5,15,1,1,6,3,10,1,6,2,6,3];
BlockAvailability = [[[1,1],[1,0],[0,0],[0,1],[0,1],[0,0],[0,0],[0,0],[0,0],[0,1],[0,1],[0,0],[1,0],[0,0],[0,0],[1,0]],[[0,0],[0,1],[0,0],[1,0],[0,0],[0,0],[1,1],[0,0],[0,0],[0,0],[1,0],[0,0],[0,0],[0,1],[0,0],[0,0]],[[0,1],[1,0],[0,0],[0,1],[0,1],[1,0],[0,0],[1,0],[0,0],[0,0],[0,1],[0,1],[0,0],[1,0],[1,0],[0,1]],[[1,0],[0,0],[0,0],[0,0],[0,1],[0,0],[0,0],[1,0],[0,0],[0,1],[0,0],[0,0],[0,0],[0,1],[1,1],[0,0]],[[0,0],[1,0],[0,1],[0,0],[1,0],[1,0],[0,0],[1,0],[0,1],[0,0],[0,0],[1,0],[1,0],[0,1],[0,1],[0,0]],[[1,0],[0,0],[0,0],[0,0],[0,0],[1,0],[0,0],[1,0],[0,0],[0,0],[0,0],[1,0],[0,0],[0,1],[0,0],[1,1]]];
SurgeonAvailability = [[[1,0],[1,1],[1,0],[1,1],[0,1],[1,0]],[[0,0],[1,1],[0,0],[1,0],[1,0],[1,1]],[[1,1],[1,0],[0,1],[0,0],[1,1],[0,1]],[[1,0],[1,1],[1,1],[1,1],[1,0],[0,0]],[[1,1],[1,1],[1,1],[0,0],[1,1],[1,0]],[[0,0],[1,1],[1,0],[1,0],[1,1],[1,1]],[[1,1],[0,0],[1,1],[1,1],[1,1],[1,0]],[[0,1],[1,0],[0,0],[1,0],[1,1],[1,1]],[[1,1],[1,1],[1,1],[1,1],[1,1],[1,1]],[[0,0],[1,0],[1,0],[1,1],[0,1],[1,1]],[[1,1],[1,1],[1,1],[1,0],[1,1],[1,1]],[[1,1],[1,1],[1,1],[1,1],[1,1],[1,1]],[[1,1],[1,1],[1,1],[1,1],[0,1],[1,0]],[[0,0],[1,0],[1,0],[0,0],[0,0],[1,1]],[[0,1],[0,1],[1,0],[1,1],[0,0],[0,1]],[[0,1],[0,1],[1,1],[1,1],[1,1],[0,1]],[[1,1],[1,1],[0,1],[1,1],[1,0],[0,1]],[[0,1],[1,1],[1,1],[1,1],[0,1],[1,1]],[[1,1],[1,1],[0,0],[1,1],[1,0],[1,0]]];
